Site = {1, 2, 3, 4, 5, 6};
hotel = 6;
distance = [| 0, 25, 6, 17, 33, 12
            | 8, 0, 20, 22, 30, 11
            | 18, 7, 0, 28, 35, 9
            | 26, 15, 24, 0, 31, 16
            | 23, 13, 21, 36, 0, 27
            | 5, 40, 2, 37, 4, 0 |];

durationOfVisit = [5, 12, 8, 16, 10, 6];
siteOpens = [7, 11, 3, 8, 29, 1];
siteCloses = [65, 75, 68, 72, 73, 198];

num_passengers = 5;
site_score =   [| 25, 72, 10, 60, 3, 88
                | 44, 23, 87, 42, 5, 99
                | 31, 12, 50, 2, 93, 38
                | 2, 68, 14, 29, 61, 16
                | 20, 7, 77, 80, 54, 26 |];
preferred_n_sites = [4, 2, 6, 3, 5];
preferred_travel_time = [39, 72, 63, 18, 55];
preference_weights =   [| 100, 15, 1
                        | 90, 16, 1
                        | 70, 5, 1
                        | 30, 2, 1
                        | 80, 3, 1 |];
